
Gurobi 10.0.1 (linux64) logging started Sun Nov 26 15:37:30 2023

Set parameter LogFile to value "ArtificialInstance/ExperimentV2/S2T5K1/AdSp/gurobi1.txt"
Gurobi Optimizer version 10.0.1 build v10.0.1rc0 (linux64)

CPU model: AMD EPYC 7H12 64-Core Processor, instruction set [SSE2|AVX|AVX2]
Thread count: 128 physical cores, 128 logical processors, using up to 32 threads

Academic license 656792 - for non-commercial use only - registered to b.___@student.vu.nl
Optimize a model with 3313 rows, 3123 columns and 11813 nonzeros
Model fingerprint: 0x832cff74
Variable types: 0 continuous, 3123 integer (3123 binary)
Coefficient statistics:
  Matrix range     [1e+00, 1e+00]
  Objective range  [2e+00, 2e+01]
  Bounds range     [1e+00, 1e+00]
  RHS range        [1e+00, 1e+00]
Presolve removed 373 rows and 349 columns
Presolve time: 0.04s
Presolved: 2940 rows, 2774 columns, 10750 nonzeros
Variable types: 0 continuous, 2774 integer (2774 binary)
Found heuristic solution: objective 570.1979467

Root relaxation: objective 5.015010e+01, 2198 iterations, 0.08 seconds (0.07 work units)

    Nodes    |    Current Node    |     Objective Bounds      |     Work
 Expl Unexpl |  Obj  Depth IntInf | Incumbent    BestBd   Gap | It/Node Time

     0     0   50.15010    0  305  570.19795   50.15010  91.2%     -    0s
H    0     0                      52.8031997   50.15010  5.02%     -    0s
H    0     0                      52.2534762   50.15010  4.03%     -    0s
H    0     0                      51.4746057   50.15010  2.57%     -    0s
     0     0   51.14881    0  384   51.47461   51.14881  0.63%     -    0s
H    0     1                      51.4617219   51.14881  0.61%     -    0s

Cutting planes:
  Gomory: 1
  Zero half: 2

Explored 1 nodes (3029 simplex iterations) in 0.30 seconds (0.17 work units)
Thread count was 32 (of 128 available processors)

Solution count 5: 51.4617 51.4746 52.2535 ... 570.198

Optimal solution found (tolerance 1.00e-04)
Best objective 5.146172189898e+01, best bound 5.146172189898e+01, gap 0.0000%
